23186.03 0
5 87 20 88 77 37 47 7 83 39 74 66 57 71 24 3 55 96 80 16 4 91 69 13 28 62 64 76 34 50 2 89 61 95 78 67 98 42 53 9 63 85 6 23 49 82 30 46 94 59 41 48 68 15 93 12 0 65 86 10 75 58 27 31 56 81 73 97 33 60 1 36 45 18 52 22 8 90 38 70 72 84 51 17 79 26 29 14 11 32 21 99 44 43 25 19 40 35 54 92